0000000000000000
0000000000000000
0000000000000000
0000000100000000
0000000010000000
0000000000000000
0000000100000000
0000000111111000
0000000000011000
0000000000000000
0000000000010000
0000000000100000
0000000001100000
0000000010000000
0000000011000000
0000000000000000
